PbHgMnO
1.0
       15.5992002487         0.0000000000         0.0000000000
        0.0000000000        10.6532802582         0.0000000000
        0.0000000000         0.0000000000         5.2670297623
      Hg   Mn    O
       16   16   48
Direct
     0.125000000         0.485094994         0.526399970
     0.625000000         0.485094994         0.526399970
     0.375000000         0.514905035         0.526399970
     0.875000000         0.514905035         0.526399970
     0.125000000         0.235094994         0.026400000
     0.625000000         0.235094994         0.026400000
     0.125000000         0.735095024         0.026400000
     0.625000000         0.735095024         0.026400000
     0.375000000         0.264905006         0.026400000
     0.875000000         0.264905006         0.026400000
     0.375000000         0.764905035         0.026400000
     0.875000000         0.764905035         0.026400000
     0.125000000         0.985095024         0.526399970
     0.625000000         0.985095024         0.526399970
     0.375000000         0.014905006         0.526399970
     0.875000000         0.014905006         0.526399970
     0.000000000         0.000000000         0.000000000
     0.500000000         0.000000000         0.000000000
     0.000000000         0.500000000         0.000000000
     0.500000000         0.500000000         0.000000000
     0.250000000         0.000000000         0.000000000
     0.750000000         0.000000000         0.000000000
     0.250000000         0.500000000         0.000000000
     0.750000000         0.500000000         0.000000000
     0.000000000         0.250000000         0.500000000
     0.500000000         0.250000000         0.500000000
     0.000000000         0.750000000         0.500000000
     0.500000000         0.750000000         0.500000000
     0.250000000         0.250000000         0.500000000
     0.750000000         0.250000000         0.500000000
     0.250000000         0.750000000         0.500000000
     0.750000000         0.750000000         0.500000000
     0.018300001         0.097000003         0.266000003
     0.518299997         0.097000003         0.266000003
     0.018300001         0.597000003         0.266000003
     0.518299997         0.597000003         0.266000003
     0.481700003         0.402999997         0.266000003
     0.981700003         0.402999997         0.266000003
     0.481700003         0.902999997         0.266000003
     0.981700003         0.902999997         0.266000003
     0.268299997         0.402999997         0.266000003
     0.768299997         0.402999997         0.266000003
     0.268299997         0.902999997         0.266000003
     0.768299997         0.902999997         0.266000003
     0.231700003         0.097000003         0.266000003
     0.731700003         0.097000003         0.266000003
     0.231700003         0.597000003         0.266000003
     0.731700003         0.597000003         0.266000003
     0.018300001         0.347000003         0.766000032
     0.518299997         0.347000003         0.766000032
     0.018300001         0.847000003         0.766000032
     0.518299997         0.847000003         0.766000032
     0.481700003         0.152999997         0.766000032
     0.981700003         0.152999997         0.766000032
     0.481700003         0.652999997         0.766000032
     0.981700003         0.652999997         0.766000032
     0.268299997         0.152999997         0.766000032
     0.768299997         0.152999997         0.766000032
     0.268299997         0.652999997         0.766000032
     0.768299997         0.652999997         0.766000032
     0.231700003         0.347000003         0.766000032
     0.731700003         0.347000003         0.766000032
     0.231700003         0.847000003         0.766000032
     0.731700003         0.847000003         0.766000032
     0.125000000         0.261000007         0.416000009
     0.625000000         0.261000007         0.416000009
     0.125000000         0.761000037         0.416000009
     0.625000000         0.761000037         0.416000009
     0.375000000         0.238999993         0.416000009
     0.875000000         0.238999993         0.416000009
     0.375000000         0.738999963         0.416000009
     0.875000000         0.738999963         0.416000009
     0.125000000         0.011000007         0.916000009
     0.625000000         0.011000007         0.916000009
     0.125000000         0.511000037         0.916000009
     0.625000000         0.511000037         0.916000009
     0.375000000         0.488999993         0.916000009
     0.875000000         0.488999993         0.916000009
     0.375000000         0.988999963         0.916000009
     0.875000000         0.988999963         0.916000009

